! 3/9/2023 9:26:57 AM
! D:\FILTRO\DATAFILE#2.S2P
! CHANNEL.1
! TR.MEASUREMENT
! CORRECTED.DATA
! RF.CORRECTION: FULL.TWO.PORT.CAL.PORT.1.2
! AVERAGING.OFF
! IF.BANDWIDTH: 1KHZ
! SWEEPTYPE:  FREQ.SWEEP(Linear)
! Reference Plane Port Info
! PORT:              PORT1              PORT2             
! DISTANCE:          0  m               0  m              
! TIME:              0  s               0  s              
! PHASE.OFFSET:      0 deg              0 deg               
! LOSS:              0  dB              0  dB             
! REF.LOSS:          0  dB              0  dB             
! REF.FREQ:          0  Hz              0  Hz             
! Power Info
! POWER:             5  dBm             5  dBm            
! EFF.POWER:         5  dBm             5  dBm            
! SOURCE.ATTEN:      0  dB              0  dB             
! TEST.ATTEN:        0  dB              0  dB             
# GHZ S RI R 50.0
! FREQ.GHZ         S11RE         S11IM         S21RE         S21IM         S12RE         S12IM         S22RE         S22IM         
!; PortSelection: Port_12
   2.000000000     0.9449716    0.2950372    -0.0002812    0.0009142    -0.0002812    0.0009201     0.9490591    0.2630309 
   2.010000000     0.9496492    0.2794405    -0.0001740    0.0008163    -0.0001745    0.0008209     0.9539304    0.2466620 
   2.020000000     0.9539273    0.2631803    -0.0002374    0.0008006    -0.0002382    0.0008082     0.9584047    0.2312059 
   2.030000000     0.9586853    0.2481036    -0.0001913    0.0008038    -0.0001903    0.0008078     0.9619073    0.2156022 
   2.040000000     0.9630781    0.2328491    -0.0001289    0.0007709    -0.0001279    0.0007772     0.9655524    0.1993537 
   2.050000000     0.9662088    0.2166772    -0.0001462    0.0006351    -0.0001305    0.0006439     0.9682711    0.1828706 
   2.060000000     0.9700341    0.2005636    -0.0002245    0.0006142    -0.0002134    0.0006150     0.9711640    0.1662451 
   2.070000000     0.9731291    0.1844928    -0.0003430    0.0006124    -0.0003353    0.0006080     0.9732200    0.1493468 
   2.080000000     0.9759859    0.1684397    -0.0003928    0.0007649    -0.0003831    0.0007555     0.9754182    0.1323039 
   2.090000000     0.9784293    0.1520205    -0.0003055    0.0008173    -0.0002970    0.0008009     0.9776059    0.1152568 
   2.100000000     0.9810175    0.1357180    -0.0002934    0.0008174    -0.0002885    0.0008151     0.9797662    0.0981779 
   2.110000000     0.9833521    0.1193084    -0.0003488    0.0008707    -0.0003510    0.0008686     0.9814818    0.0815123 
   2.120000000     0.9847717    0.1026735    -0.0002293    0.0010473    -0.0002249    0.0010364     0.9827594    0.0647428 
   2.130000000     0.9861464    0.0865244    -0.0001134    0.0009702    -0.0001208    0.0009537     0.9835462    0.0474854 
   2.140000000     0.9873019    0.0701328    -0.0000419    0.0009738    -0.0000482    0.0009679     0.9843076    0.0308962 
   2.150000000     0.9886968    0.0539185    -0.0000323    0.0008894    -0.0000256    0.0008824     0.9848429    0.0141074 
   2.160000000     0.9887312    0.0372351    -0.0000204    0.0009169    -0.0000190    0.0009077     0.9846215   -0.0031994 
   2.170000000     0.9888057    0.0202022     0.0000291    0.0008964     0.0000222    0.0008839     0.9835815   -0.0209096 
   2.180000000     0.9889613    0.0033832     0.0000069    0.0008208     0.0000009    0.0008160     0.9832253   -0.0380030 
   2.190000000     0.9888092   -0.0137007    -0.0000848    0.0008041    -0.0000901    0.0008064     0.9821510   -0.0554287 
   2.200000000     0.9887543   -0.0303392    -0.0000998    0.0009525    -0.0001085    0.0009602     0.9810333   -0.0726965 
   2.210000000     0.9883632   -0.0471882     0.0000143    0.0010575     0.0000062    0.0010564     0.9794050   -0.0897148 
   2.220000000     0.9876013   -0.0639014     0.0001149    0.0009627     0.0001133    0.0009669     0.9781044   -0.1070476 
   2.230000000     0.9865275   -0.0805278     0.0000895    0.0010022     0.0000841    0.0010064     0.9760752   -0.1242713 
   2.240000000     0.9847815   -0.0973317     0.0001991    0.0010144     0.0001899    0.0010213     0.9738003   -0.1418861 
   2.250000000     0.9825302   -0.1143401     0.0002537    0.0009950     0.0002456    0.0010024     0.9710165   -0.1589549 
   2.260000000     0.9804237   -0.1312443     0.0003226    0.0009059     0.0003209    0.0009126     0.9679858   -0.1758464 
   2.270000000     0.9777659   -0.1481913     0.0002900    0.0008784     0.0002937    0.0008847     0.9643395   -0.1938980 
   2.280000000     0.9746591   -0.1653222     0.0002523    0.0008078     0.0002521    0.0008101     0.9609773   -0.2111147 
   2.290000000     0.9714053   -0.1828467     0.0002124    0.0008518     0.0002119    0.0008563     0.9564198   -0.2284371 
   2.300000000     0.9686528   -0.2002634     0.0002222    0.0008039     0.0002311    0.0008088     0.9515496   -0.2454740 
   2.310000000     0.9649240   -0.2170249     0.0000993    0.0009244     0.0000980    0.0009250     0.9471317   -0.2629379 
   2.320000000     0.9611585   -0.2337067     0.0001445    0.0009787     0.0001479    0.0009864     0.9424913   -0.2800266 
   2.330000000     0.9572183   -0.2504951     0.0001662    0.0011509     0.0001603    0.0011364     0.9370276   -0.2970700 
   2.340000000     0.9525327   -0.2668966     0.0003500    0.0012410     0.0003577    0.0012433     0.9313900   -0.3144045 
   2.350000000     0.9479077   -0.2833702     0.0004964    0.0012553     0.0004987    0.0012580     0.9256011   -0.3311740 
   2.360000000     0.9425474   -0.3001195     0.0006460    0.0011932     0.0006517    0.0011847     0.9194306   -0.3481092 
   2.370000000     0.9366927   -0.3168906     0.0007622    0.0011850     0.0007560    0.0011803     0.9126846   -0.3652185 
   2.380000000     0.9305217   -0.3340105     0.0008997    0.0010554     0.0008977    0.0010364     0.9059587   -0.3814006 
   2.390000000     0.9244887   -0.3510851     0.0009061    0.0009295     0.0009100    0.0009281     0.8982387   -0.3983134 
   2.400000000     0.9179301   -0.3677074     0.0009026    0.0008689     0.0008910    0.0008755     0.8906542   -0.4149815 
   2.410000000     0.9112955   -0.3843746     0.0010042    0.0008772     0.0009919    0.0008833     0.8825984   -0.4315086 
   2.420000000     0.9045339   -0.4006085     0.0010962    0.0007494     0.0010998    0.0007475     0.8740799   -0.4479768 
   2.430000000     0.8970335   -0.4167843     0.0011337    0.0005565     0.0011211    0.0005571     0.8653787   -0.4642907 
   2.440000000     0.8893223   -0.4325967     0.0010170    0.0005021     0.0010405    0.0005054     0.8566248   -0.4805141 
   2.450000000     0.8812333   -0.4487187     0.0010306    0.0004474     0.0010129    0.0004565     0.8474973   -0.4963137 
   2.460000000     0.8726688   -0.4644908     0.0010093    0.0004072     0.0009997    0.0004079     0.8377199   -0.5123069 
   2.470000000     0.8637164   -0.4800606     0.0010318    0.0002956     0.0010329    0.0002987     0.8279508   -0.5278972 
   2.480000000     0.8550247   -0.4959831     0.0009536    0.0002437     0.0009336    0.0002517     0.8175815   -0.5432354 
   2.490000000     0.8461154   -0.5120750     0.0009300    0.0002229     0.0009374    0.0002311     0.8069549   -0.5587900 
   2.500000000     0.8359761   -0.5274315     0.0009150    0.0001685     0.0009620    0.0001769     0.7959789   -0.5734293 
   2.510000000     0.8256640   -0.5426567     0.0008505   -0.0000984     0.0007577   -0.0000317     0.7849926   -0.5888785 
   2.520000000     0.8155037   -0.5578935     0.0005937    0.0001497     0.0007670    0.0001664     0.7733313   -0.6042910 
   2.530000000     0.8051246   -0.5728999     0.0005603    0.0001514     0.0004967    0.0000484     0.7610187   -0.6190082 
   2.540000000     0.7942502   -0.5878426     0.0005890    0.0000918     0.0005738    0.0001494     0.7489595   -0.6335411 
   2.550000000     0.7830188   -0.6030468     0.0004615    0.0001369     0.0005194    0.0001521     0.7364569   -0.6481959 
   2.560000000     0.7712723   -0.6172462     0.0004490    0.0003701     0.0004486    0.0003031     0.7230093   -0.6622565 
   2.570000000     0.7592828   -0.6320016     0.0005824    0.0003726     0.0005313    0.0003855     0.7103070   -0.6764626 
   2.580000000     0.7472383   -0.6461251     0.0006200    0.0003329     0.0006118    0.0003893     0.6968257   -0.6900021 
   2.590000000     0.7350709   -0.6603510     0.0006770    0.0004609     0.0007699    0.0003647     0.6823802   -0.7039851 
   2.600000000     0.7216569   -0.6743461     0.0006391    0.0003699     0.0005400    0.0003536     0.6684520   -0.7174137 
   2.610000000     0.7090642   -0.6882408     0.0007762    0.0004356     0.0008220    0.0004662     0.6539626   -0.7305166 
   2.620000000     0.6954186   -0.7017796     0.0009346    0.0004345     0.0009567    0.0004259     0.6394777   -0.7440422 
   2.630000000     0.6813270   -0.7152376     0.0009645    0.0001962     0.0009732    0.0001673     0.6235999   -0.7558280 
   2.640000000     0.6673226   -0.7285352     0.0009655    0.0000122     0.0008310    0.0001332     0.6080860   -0.7685833 
   2.650000000     0.6530319   -0.7411941     0.0008056    0.0002545     0.0010432    0.0001489     0.5921760   -0.7808072 
   2.660000000     0.6386320   -0.7543752     0.0009600   -0.0000388     0.0007649    0.0001115     0.5756399   -0.7922094 
   2.670000000     0.6231503   -0.7659836     0.0008348   -0.0000596     0.0009342   -0.0000231     0.5593736   -0.8040411 
   2.680000000     0.6080097   -0.7782823     0.0007471    0.0000847     0.0007650    0.0000673     0.5426911   -0.8154972 
   2.690000000     0.5929458   -0.7900901     0.0007566    0.0001425     0.0007614    0.0001089     0.5253884   -0.8264605 
   2.700000000     0.5771204   -0.8017963     0.0009887    0.0000519     0.0008934    0.0001586     0.5074381   -0.8372603 
   2.710000000     0.5603721   -0.8129456     0.0009670    0.0000557     0.0010470   -0.0000799     0.4897412   -0.8474494 
   2.720000000     0.5440810   -0.8244362     0.0009535   -0.0002303     0.0007945   -0.0001570     0.4712068   -0.8572751 
   2.730000000     0.5279360   -0.8357051     0.0008471   -0.0001992     0.0008699   -0.0002029     0.4526620   -0.8671659 
   2.740000000     0.5105561   -0.8459645     0.0009363   -0.0002272     0.0008796   -0.0002269     0.4333198   -0.8769274 
   2.750000000     0.4928397   -0.8560691     0.0007754   -0.0003285     0.0007866   -0.0003430     0.4141814   -0.8862270 
   2.760000000     0.4753069   -0.8659846     0.0007987   -0.0004020     0.0007734   -0.0003935     0.3941310   -0.8942708 
   2.770000000     0.4576222   -0.8751566     0.0006503   -0.0004467     0.0006234   -0.0004365     0.3732707   -0.9028879 
   2.780000000     0.4391517   -0.8847123     0.0006421   -0.0004445     0.0006933   -0.0004787     0.3529078   -0.9110006 
   2.790000000     0.4208972   -0.8935479     0.0005910   -0.0005724     0.0005419   -0.0004605     0.3318179   -0.9182757 
   2.800000000     0.4022884   -0.9023433     0.0005425   -0.0005800     0.0006737   -0.0006249     0.3100554   -0.9255794 
   2.810000000     0.3831075   -0.9103168     0.0004101   -0.0005352     0.0004095   -0.0005576     0.2875712   -0.9326091 
   2.820000000     0.3635605   -0.9187341     0.0003950   -0.0005303     0.0004054   -0.0005775     0.2648780   -0.9381877 
   2.830000000     0.3436720   -0.9262390     0.0004027   -0.0007505     0.0003127   -0.0006402     0.2415201   -0.9435161 
   2.840000000     0.3237549   -0.9329495     0.0001775   -0.0006907     0.0003238   -0.0008810     0.2172783   -0.9482244 
   2.850000000     0.3032983   -0.9395192     0.0001116   -0.0008704    -0.0000094   -0.0006645     0.1926558   -0.9527370 
   2.860000000     0.2827880   -0.9459856    -0.0000089   -0.0007897     0.0000364   -0.0008426     0.1664508   -0.9562016 
   2.870000000     0.2619756   -0.9521785    -0.0000235   -0.0008164    -0.0000301   -0.0008045     0.1392177   -0.9588214 
   2.880000000     0.2407836   -0.9574104    -0.0003226   -0.0009903    -0.0002701   -0.0010847     0.1108048   -0.9603111 
   2.890000000     0.2197016   -0.9626383    -0.0006408   -0.0011223    -0.0007592   -0.0009570     0.0818663   -0.9608843 
   2.900000000     0.1979278   -0.9675210    -0.0009403   -0.0008255    -0.0008673   -0.0009840     0.0502174   -0.9597693 
   2.910000000     0.1756682   -0.9713832    -0.0011392   -0.0008339    -0.0011911   -0.0007612     0.0164264   -0.9557534 
   2.920000000     0.1536621   -0.9750454    -0.0014800   -0.0007675    -0.0014961   -0.0007618    -0.0192304   -0.9488873 
   2.930000000     0.1314115   -0.9779956    -0.0019037   -0.0006224    -0.0019214   -0.0006216    -0.0587186   -0.9374653 
   2.940000000     0.1089390   -0.9812680    -0.0024318   -0.0002470    -0.0023743   -0.0003208    -0.1017530   -0.9187649 
   2.950000000     0.0857743   -0.9835504    -0.0027921    0.0000957    -0.0028536    0.0002154    -0.1493027   -0.8873974 
   2.960000000     0.0621733   -0.9854902    -0.0035473    0.0008405    -0.0035244    0.0007915    -0.1972299   -0.8353799 
   2.970000000     0.0390439   -0.9861197    -0.0041163    0.0022813    -0.0040925    0.0021890    -0.2339307   -0.7490414 
   2.980000000     0.0154664   -0.9866228    -0.0038096    0.0042788    -0.0037931    0.0044082    -0.2195271   -0.6212576 
   2.990000000    -0.0088558   -0.9866670    -0.0015791    0.0063648    -0.0015697    0.0063218    -0.0944440   -0.5106053 
   3.000000000    -0.0330553   -0.9862404     0.0015446    0.0061647     0.0015435    0.0060504     0.0823389   -0.5392995 
   3.010000000    -0.0575122   -0.9849867     0.0031152    0.0039815     0.0030768    0.0040646     0.1623966   -0.6676238 
   3.020000000    -0.0821533   -0.9832886     0.0032369    0.0022632     0.0032175    0.0023120     0.1519524   -0.7783483 
   3.030000000    -0.1074958   -0.9807718     0.0028263    0.0012336     0.0028604    0.0010296     0.1090157   -0.8488405 
   3.040000000    -0.1325331   -0.9772218     0.0022280    0.0002880     0.0021803    0.0004430     0.0601897   -0.8897963 
   3.050000000    -0.1582323   -0.9729409     0.0015531   -0.0000908     0.0015182   -0.0000695     0.0131986   -0.9137425 
   3.060000000    -0.1838956   -0.9683961     0.0008915   -0.0000949     0.0009221   -0.0001550    -0.0293145   -0.9276767 
   3.070000000    -0.2108834   -0.9638746     0.0005490   -0.0003540     0.0005381   -0.0002453    -0.0692488   -0.9351732 
   3.080000000    -0.2361506   -0.9572617     0.0000165   -0.0004510     0.0000198   -0.0003489    -0.1076244   -0.9396834 
   3.090000000    -0.2629483   -0.9499436    -0.0005000   -0.0002605    -0.0004870   -0.0003497    -0.1420874   -0.9394802 
   3.100000000    -0.2896046   -0.9416740    -0.0010100   -0.0002782    -0.0009865   -0.0003279    -0.1753901   -0.9374434 
   3.110000000    -0.3165157   -0.9330581    -0.0015003   -0.0003029    -0.0014884   -0.0001559    -0.2076932   -0.9336820 
   3.120000000    -0.3438511   -0.9227597    -0.0021735   -0.0000239    -0.0021985   -0.0002577    -0.2386660   -0.9286501 
   3.130000000    -0.3712511   -0.9119141    -0.0027886    0.0001273    -0.0027847    0.0001566    -0.2691161   -0.9219984 
   3.140000000    -0.3997253   -0.9000062    -0.0034867    0.0005224    -0.0034366    0.0005049    -0.2983112   -0.9146030 
   3.150000000    -0.4266378   -0.8866079    -0.0041242    0.0010344    -0.0040417    0.0010018    -0.3265659   -0.9055327 
   3.160000000    -0.4549640   -0.8723113    -0.0048328    0.0015578    -0.0048587    0.0013469    -0.3547164   -0.8954632 
   3.170000000    -0.4831423   -0.8560768    -0.0054595    0.0018517    -0.0054134    0.0020530    -0.3823494   -0.8846214 
   3.180000000    -0.5117056   -0.8385981    -0.0063346    0.0027064    -0.0063735    0.0025762    -0.4101384   -0.8724942 
   3.190000000    -0.5402324   -0.8200648    -0.0072464    0.0035352    -0.0072499    0.0034988    -0.4374172   -0.8591200 
   3.200000000    -0.5690227   -0.7995489    -0.0082638    0.0045348    -0.0082265    0.0045147    -0.4646037   -0.8448334 
   3.210000000    -0.5978557   -0.7767658    -0.0093549    0.0055804    -0.0093250    0.0057080    -0.4918498   -0.8297447 
   3.220000000    -0.6263639   -0.7531780    -0.0105798    0.0072863    -0.0106848    0.0070994    -0.5178580   -0.8127363 
   3.230000000    -0.6557103   -0.7272824    -0.0118015    0.0089686    -0.0115983    0.0091226    -0.5443930   -0.7955582 
   3.240000000    -0.6839333   -0.6982038    -0.0130292    0.0111638    -0.0128532    0.0111137    -0.5705415   -0.7763663 
   3.250000000    -0.7126600   -0.6670445    -0.0144135    0.0136731    -0.0143382    0.0134837    -0.5962568   -0.7561479 
   3.260000000    -0.7406094   -0.6331145    -0.0158585    0.0167215    -0.0157653    0.0164977    -0.6215662   -0.7346066 
   3.270000000    -0.7690641   -0.5962833    -0.0173204    0.0201634    -0.0173264    0.0200989    -0.6471270   -0.7112953 
   3.280000000    -0.7968305   -0.5558526    -0.0188273    0.0248863    -0.0189186    0.0245472    -0.6721948   -0.6858112 
   3.290000000    -0.8233947   -0.5112678    -0.0203026    0.0300039    -0.0203589    0.0298551    -0.6968387   -0.6592403 
   3.300000000    -0.8484775   -0.4621191    -0.0216228    0.0363762    -0.0215633    0.0363030    -0.7210045   -0.6301567 
   3.310000000    -0.8724099   -0.4083843    -0.0228051    0.0440714    -0.0228117    0.0440108    -0.7450790   -0.5986604 
   3.320000000    -0.8933772   -0.3485446    -0.0236946    0.0535615    -0.0232824    0.0534123    -0.7687466   -0.5644084 
   3.330000000    -0.9119561   -0.2824060    -0.0238780    0.0650108    -0.0232339    0.0648507    -0.7919146   -0.5275549 
   3.340000000    -0.9256227   -0.2081652    -0.0223908    0.0796757    -0.0221617    0.0790609    -0.8133211   -0.4870353 
   3.350000000    -0.9325685   -0.1254373    -0.0189925    0.0971964    -0.0191324    0.0965958    -0.8335939   -0.4430349 
   3.360000000    -0.9300549   -0.0327512    -0.0126445    0.1185685    -0.0129300    0.1181229    -0.8513240   -0.3938434 
   3.370000000    -0.9138966    0.0707047    -0.0012237    0.1449103    -0.0019064    0.1450636    -0.8656389   -0.3391289 
   3.380000000    -0.8785114    0.1847314     0.0180641    0.1764769     0.0175412    0.1771644    -0.8749502   -0.2784798 
   3.390000000    -0.8147773    0.3071827     0.0491868    0.2129330     0.0498024    0.2138798    -0.8769060   -0.2102062 
   3.400000000    -0.7122245    0.4311068     0.0989164    0.2525505     0.1002449    0.2528595    -0.8671596   -0.1352825 
   3.410000000    -0.5576518    0.5405988     0.1753076    0.2884339     0.1767700    0.2877836    -0.8397468   -0.0560815 
   3.420000000    -0.3465831    0.6052085     0.2860990    0.3055446     0.2869586    0.3034811    -0.7895032    0.0193144 
   3.430000000    -0.0956179    0.5814536     0.4281772    0.2767563     0.4270729    0.2754810    -0.7143155    0.0780725 
   3.440000000     0.1375631    0.4375872     0.5723297    0.1759514     0.5720071    0.1764730    -0.6251190    0.1041397 
   3.450000000     0.2703953    0.1968949     0.6706634    0.0062990     0.6715373    0.0050461    -0.5442903    0.0918564 
   3.460000000     0.2644354   -0.0555946     0.6909009   -0.1933381     0.6898158   -0.1951018    -0.4938315    0.0566586 
   3.470000000     0.1539235   -0.2422409     0.6384346   -0.3762392     0.6367252   -0.3770698    -0.4757510    0.0235924 
   3.480000000     0.0014751   -0.3359688     0.5417809   -0.5198406     0.5406864   -0.5202162    -0.4765688    0.0071697 
   3.490000000    -0.1434262   -0.3500230     0.4258660   -0.6238790     0.4247023   -0.6244246    -0.4804657    0.0100004 
   3.500000000    -0.2577318   -0.3107885     0.3038861   -0.6967564     0.3021225   -0.6978642    -0.4796355    0.0262272 
   3.510000000    -0.3339578   -0.2398962     0.1800747   -0.7472063     0.1765139   -0.7475368    -0.4688601    0.0504595 
   3.520000000    -0.3717491   -0.1551127     0.0530397   -0.7793902     0.0500806   -0.7769469    -0.4464413    0.0757603 
   3.530000000    -0.3750781   -0.0682125    -0.0771838   -0.7925213    -0.0777853   -0.7886248    -0.4141126    0.0975787 
   3.540000000    -0.3473864    0.0108728    -0.2088906   -0.7845360    -0.2072189   -0.7817027    -0.3736037    0.1122471 
   3.550000000    -0.2945038    0.0750449    -0.3396484   -0.7557608    -0.3371195   -0.7546501    -0.3281842    0.1163804 
   3.560000000    -0.2231289    0.1170754    -0.4663737   -0.7041005    -0.4637213   -0.7050275    -0.2823441    0.1083590 
   3.570000000    -0.1419863    0.1335224    -0.5828902   -0.6295828    -0.5827948   -0.6322655    -0.2403627    0.0879168 
   3.580000000    -0.0617030    0.1237754    -0.6841509   -0.5344467    -0.6872982   -0.5359520    -0.2075833    0.0572263 
   3.590000000     0.0103036    0.0917079    -0.7668455   -0.4232436    -0.7698278   -0.4214814    -0.1870048    0.0214291 
   3.600000000     0.0675260    0.0420851    -0.8280110   -0.2994683    -0.8285777   -0.2963274    -0.1794932   -0.0154927 
   3.610000000     0.1057590   -0.0189118    -0.8652260   -0.1693774    -0.8635157   -0.1672075    -0.1836989   -0.0489198 
   3.620000000     0.1239757   -0.0818849    -0.8794456   -0.0383329    -0.8774140   -0.0377298    -0.1994362   -0.0734803 
   3.630000000     0.1253763   -0.1414708    -0.8718674    0.0888162    -0.8715887    0.0893216    -0.2213213   -0.0866882 
   3.640000000     0.1128473   -0.1938974    -0.8462555    0.2092268    -0.8466952    0.2110769    -0.2445858   -0.0879661 
   3.650000000     0.0903240   -0.2345593    -0.8062447    0.3214171    -0.8049878    0.3234891    -0.2661362   -0.0777107 
   3.660000000     0.0639988   -0.2629914    -0.7533316    0.4239488    -0.7515199    0.4256043    -0.2826114   -0.0563418 
   3.670000000     0.0372124   -0.2804361    -0.6896097    0.5176779    -0.6876341    0.5185093    -0.2910531   -0.0263962 
   3.680000000     0.0117270   -0.2876245    -0.6167523    0.6027703    -0.6152743    0.6028855    -0.2886008    0.0103716 
   3.690000000    -0.0080363   -0.2853327    -0.5342988    0.6793535    -0.5326889    0.6794973    -0.2725650    0.0513696 
   3.700000000    -0.0196848   -0.2770764    -0.4422909    0.7460489    -0.4399275    0.7460029    -0.2412910    0.0923170 
   3.710000000    -0.0211389   -0.2650487    -0.3394898    0.8012982    -0.3372469    0.8006312    -0.1942933    0.1286099 
   3.720000000    -0.0118461   -0.2541200    -0.2269880    0.8429101    -0.2252154    0.8417283    -0.1313009    0.1557064 
   3.730000000     0.0080957   -0.2476875    -0.1061095    0.8675799    -0.1047613    0.8656446    -0.0547117    0.1676821 
   3.740000000     0.0366461   -0.2501826     0.0205389    0.8712739     0.0206942    0.8689890     0.0309238    0.1592601 
   3.750000000     0.0703835   -0.2648270     0.1479609    0.8516410     0.1469115    0.8494061     0.1198160    0.1270344 
   3.760000000     0.1050982   -0.2944104     0.2685668    0.8065444     0.2678003    0.8061195     0.2038311    0.0692088 
   3.770000000     0.1341639   -0.3378792     0.3774290    0.7399364     0.3770462    0.7401986     0.2738392   -0.0125708 
   3.780000000     0.1535523   -0.3933186     0.4672832    0.6552399     0.4674684    0.6547964     0.3227098   -0.1125369 
   3.790000000     0.1591670   -0.4567738     0.5349355    0.5586650     0.5352116    0.5578291     0.3462244   -0.2231555 
   3.800000000     0.1491332   -0.5230658     0.5795854    0.4570592     0.5787961    0.4560654     0.3427197   -0.3357327 
   3.810000000     0.1240268   -0.5868735     0.6022827    0.3563119     0.6015261    0.3564262     0.3149686   -0.4418580 
   3.820000000     0.0863943   -0.6443409     0.6056893    0.2620710     0.6052204    0.2628005     0.2669091   -0.5357851 
   3.830000000     0.0392153   -0.6929555     0.5938099    0.1786753     0.5946848    0.1791914     0.2048442   -0.6150037 
   3.840000000    -0.0139534   -0.7322631     0.5719081    0.1065232     0.5735216    0.1061372     0.1334857   -0.6771621 
   3.850000000    -0.0713092   -0.7619255     0.5437024    0.0457997     0.5455606    0.0446933     0.0578816   -0.7246636 
   3.860000000    -0.1296803   -0.7824548     0.5136834   -0.0046163     0.5135664   -0.0069095    -0.0193441   -0.7569745 
   3.870000000    -0.1878649   -0.7938166     0.4813168   -0.0467445     0.4804561   -0.0485301    -0.0953846   -0.7775991 
   3.880000000    -0.2444172   -0.7988207     0.4479842   -0.0811595     0.4469599   -0.0815123    -0.1674410   -0.7876638 
   3.890000000    -0.2990797   -0.7980973     0.4160474   -0.1083163     0.4155046   -0.1081449    -0.2363266   -0.7893987 
   3.900000000    -0.3514120   -0.7921526     0.3859396   -0.1302911     0.3859486   -0.1304097    -0.3009115   -0.7842623 
   3.910000000    -0.4000810   -0.7816267     0.3572083   -0.1479736     0.3573277   -0.1483769    -0.3607934   -0.7736729 
   3.920000000    -0.4464134   -0.7681442     0.3301384   -0.1621122     0.3307363   -0.1623369    -0.4161205   -0.7582891 
   3.930000000    -0.4901746   -0.7516688     0.3053210   -0.1731492     0.3056311   -0.1739556    -0.4673404   -0.7392371 
   3.940000000    -0.5308323   -0.7330675     0.2824981   -0.1817849     0.2826362   -0.1828600    -0.5147730   -0.7177173 
   3.950000000    -0.5687196   -0.7114389     0.2619376   -0.1883490     0.2610290   -0.1897732    -0.5577422   -0.6936299 
   3.960000000    -0.6047101   -0.6890998     0.2435234   -0.1947792     0.2416136   -0.1958440    -0.5977166   -0.6676617 
   3.970000000    -0.6378390   -0.6651790     0.2255809   -0.2002956     0.2234237   -0.2002407    -0.6338884   -0.6403996 
   3.980000000    -0.6688260   -0.6400861     0.2085727   -0.2045131     0.2070335   -0.2037320    -0.6678085   -0.6127494 
   3.990000000    -0.6978648   -0.6134731     0.1925809   -0.2081082     0.1919149   -0.2066561    -0.6991420   -0.5834914 
   4.000000000    -0.7240114   -0.5863404     0.1777130   -0.2105180     0.1782067   -0.2099853    -0.7278204   -0.5533391 
